nohup: ignoring input
original problem has 3648 variables (192 bin, 0 int, 0 impl, 3456 cont) and 3312 constraints
original problem has 842 variables (421 bin, 0 int, 0 impl, 421 cont) and 479 constraints
geometric
miplib_39binary-small
rootsol
symmetric
./result/generated_instances/miplib_39binary/-small/rootsol/scip/heuristic_mode/lb-from-rootsol-t_total1200s-t_node2s-small_lb_k0_regression_beforenode/seed0/
./result/generated_instances/miplib_39binary/-small/rootsol/scip/heuristic_mode/lb-from-rootsol-t_total1200s-t_node2s-small_lb_baseline_beforenode/seed0/
./result/generated_instances/miplib_39binary/-small/rootsol/scip/heuristic_mode/lb-from-rootsol-t_total1200s-t_node2s-small_lb_k0_regression_beforenode_freq1/seed0/
./result/generated_instances/miplib_39binary/-small/rootsol/scip/heuristic_mode/lb-from-rootsol-t_total1200s-t_node2s-small_lb_k0_regression_beforenode/seed0/
./result/generated_instances/miplib_39binary/-small/rootsol/scip/heuristic_mode/lb-from-rootsol-t_total1200s-t_node2s-small_lb_k0_regression_beforenode_freq100/seed0/
./result/generated_instances/miplib_39binary/-small/rootsol/scip/heuristic_mode/lb-from-rootsol-t_total1200s-t_node2s-small_lb_k0_rl_beforenode/seed0/
./result/generated_instances/miplib_39binary/-small/rootsol/scip/heuristic_mode/lb-from-rootsol-t_total1200s-t_node2s-small_lb_k0_regression_rl_beforenode_freq1/seed0/
./result/generated_instances/miplib_39binary/-small/rootsol/scip/heuristic_mode/lb-from-rootsol-t_total1200s-t_node2s-small_lb_k0_regression_rl_beforenode/seed0/
./result/generated_instances/miplib_39binary/-small/rootsol/scip/heuristic_mode/lb-from-rootsol-t_total1200s-t_node2s-small_lb_k0_regression_rl_beforenode_freq100/seed0/
seed: 0
cpu
geometric
Traceback (most recent call last):
  File "compute_evaluation_results_scip_multi.py", line 147, in <module>
    run_localbranch.primal_integral_multicall_03(
  File "/home/liudefen/projects/ML4LocalBranch_extend/execute_heuristics.py", line 1186, in primal_integral_multicall_03
    with gzip.open(filename, 'rb') as f:
  File "/home/liudefen/opt/python3.8.0/lib/python3.8/gzip.py", line 58, in open
    binary_file = GzipFile(filename, gz_mode, compresslevel)
  File "/home/liudefen/opt/python3.8.0/lib/python3.8/gzip.py", line 173, in __init__
    fileobj = self.myfileobj = builtins.open(filename, mode or 'rb')
FileNotFoundError: [Errno 2] No such file or directory: './result/generated_instances/miplib_39binary/-small/rootsol/scip/heuristic_mode/lb-from-rootsol-t_total1200s-t_node2s-small_lb_k0_regression_beforenode_freq1/seed0/lb-test-miplib_39binary-1_transformed_aflow30a.pkl'
